944047
14 17 42391
17 15 45489
15 9 71452
9 8 54349
8 11 17581
11 1 8732
1 21 6578
21 10 5744
10 35 6355
35 2 10541
2 27 15288
27 18 12606
18 7 20722
7 6 28722
6 36 22446
36 29 16895
29 38 745
38 13 18675
13 28 6411
28 31 12751
31 23 11949
23 34 31609
34 12 39715
12 33 3967
33 26 15458
26 39 17497
39 25 4093
25 30 9899
30 37 941
37 20 17449
20 32 24202
32 5 3290
5 24 63665
24 22 45980
22 4 23621
4 40 28500
40 19 13572
19 16 62440
16 3 71701
3 14 30026
